% Logging successfully configured
%%%mzn-stat: initTime=0.004563374
%%%mzn-stat: objective=1049
%%%mzn-stat: nodes=194
%%%mzn-stat: restarts=0
%%%mzn-stat: peakDepth=192
%%%mzn-stat: solveTime=0.001210739
%%%mzn-stat: variables=396
%%%mzn-stat: propagators=270
%%%mzn-stat: failures=2
%%%mzn-stat: propagations=908
%%%mzn-stat: nogoods=2
%%%mzn-stat: numAtomicConstraintsPropagated=0
%%%mzn-stat: circuitNumber1PropagationsTotal=40
%%%mzn-stat: circuitNumber1CircuitConflicts=1
%%%mzn-stat: circuitNumber1AlldiffConflicts=0
%%%mzn-stat: circuitNumber1TotalFixedEdgesAtConflict=17
%%%mzn-stat: circuitNumber1NumberOfConflicts=1
%%%mzn-stat: circuitNumber1GacPrunings=96
%%%mzn-stat: circuitNumber1PropagationsThatGacPruned=19
%%%mzn-stat: circuitNumber1TotalPruningHallSetSize=154
%%%mzn-stat: circuitNumber1NumberOfPruningExplanations=96
%%%mzn-stat: circuitNumber1MaxPruningHallSetSize=8
%%%mzn-stat: circuitNumber1TotalSccSizeAtPruning=64
%%%mzn-stat: circuitNumber1NumberOfSccPruningCalls=19
%%%mzn-stat: circuitNumber1TotalVarsInvolvedInPruning=88
%%%mzn-stat: circuitNumber1MaxValuesPrunedFromSingleVar=5
%%%mzn-stat: circuitNumber1HallCircuitChecks=36
%%%mzn-stat: circuitNumber1HallCircuitPrunings=2
%%%mzn-stat: circuitNumber1CircuitPreventPrunings=15
%%%mzn-stat: AverageConflictSize=10.5
%%%mzn-stat: NumUnitNogoodsLearned=0
%%%mzn-stat: AverageLearnedNogoodLength=12.5
%%%mzn-stat: AverageBacktrackAmount=0
%%%mzn-stat: AverageLbd=12.5
%%%mzn-stat: 2AutonomousSearchNumBackupCalled=179
%%%mzn-stat: 2AutonomousSearchNumPredicatesRemoved=0
%%%mzn-stat: 2AutonomousSearchNumCalls=180
%%%mzn-stat: 2AutonomousSearchNumPredicatesAdded=55
%%%mzn-stat: 2AutonomousSearchAverageSizeOfHeap=0.3055555555555556
%%%mzn-stat: 2AutonomousSearchNumAssignedPredicatesEncountered=55
%%%mzn-stat-end
maxleg = 1049;
succ = array1d(1..20,[2, 4, 6, 5, 8, 1, 3, 10, 7, 11, 14, 9, 16, 20, 18, 17, 12, 19, 13, 15]);
% time elapsed: 5.09 s
----------
%%%mzn-stat: initTime=0.004563374
%%%mzn-stat: objective=903
%%%mzn-stat: nodes=380
%%%mzn-stat: restarts=0
%%%mzn-stat: peakDepth=192
%%%mzn-stat: solveTime=0.002695463
%%%mzn-stat: variables=396
%%%mzn-stat: propagators=270
%%%mzn-stat: failures=7
%%%mzn-stat: propagations=1478
%%%mzn-stat: nogoods=7
%%%mzn-stat: numAtomicConstraintsPropagated=0
%%%mzn-stat: circuitNumber1PropagationsTotal=98
%%%mzn-stat: circuitNumber1CircuitConflicts=4
%%%mzn-stat: circuitNumber1AlldiffConflicts=0
%%%mzn-stat: circuitNumber1TotalFixedEdgesAtConflict=67
%%%mzn-stat: circuitNumber1NumberOfConflicts=4
%%%mzn-stat: circuitNumber1GacPrunings=236
%%%mzn-stat: circuitNumber1PropagationsThatGacPruned=48
%%%mzn-stat: circuitNumber1TotalPruningHallSetSize=451
%%%mzn-stat: circuitNumber1NumberOfPruningExplanations=236
%%%mzn-stat: circuitNumber1MaxPruningHallSetSize=10
%%%mzn-stat: circuitNumber1TotalSccSizeAtPruning=196
%%%mzn-stat: circuitNumber1NumberOfSccPruningCalls=48
%%%mzn-stat: circuitNumber1TotalVarsInvolvedInPruning=205
%%%mzn-stat: circuitNumber1MaxValuesPrunedFromSingleVar=5
%%%mzn-stat: circuitNumber1HallCircuitChecks=94
%%%mzn-stat: circuitNumber1HallCircuitPrunings=5
%%%mzn-stat: circuitNumber1CircuitPreventPrunings=37
%%%mzn-stat: AverageConflictSize=9
%%%mzn-stat: NumUnitNogoodsLearned=0
%%%mzn-stat: AverageLearnedNogoodLength=9.142857142857142
%%%mzn-stat: AverageBacktrackAmount=0
%%%mzn-stat: AverageLbd=8.285714285714286
%%%mzn-stat: 2AutonomousSearchNumBackupCalled=344
%%%mzn-stat: 2AutonomousSearchNumPredicatesRemoved=0
%%%mzn-stat: 2AutonomousSearchNumCalls=346
%%%mzn-stat: 2AutonomousSearchNumPredicatesAdded=133
%%%mzn-stat: 2AutonomousSearchAverageSizeOfHeap=0.4161849710982659
%%%mzn-stat: 2AutonomousSearchNumAssignedPredicatesEncountered=144
%%%mzn-stat-end
maxleg = 903;
succ = array1d(1..20,[2, 4, 6, 5, 8, 1, 3, 10, 7, 15, 9, 13, 16, 11, 18, 17, 20, 19, 12, 14]);
% time elapsed: 5.09 s
----------
%%%mzn-stat: initTime=0.004563374
%%%mzn-stat: objective=520
%%%mzn-stat: nodes=557
%%%mzn-stat: restarts=0
%%%mzn-stat: peakDepth=192
%%%mzn-stat: solveTime=0.003756266
%%%mzn-stat: variables=396
%%%mzn-stat: propagators=270
%%%mzn-stat: failures=10
%%%mzn-stat: propagations=1966
%%%mzn-stat: nogoods=10
%%%mzn-stat: numAtomicConstraintsPropagated=0
%%%mzn-stat: circuitNumber1PropagationsTotal=137
%%%mzn-stat: circuitNumber1CircuitConflicts=6
%%%mzn-stat: circuitNumber1AlldiffConflicts=1
%%%mzn-stat: circuitNumber1TotalFixedEdgesAtConflict=106
%%%mzn-stat: circuitNumber1NumberOfConflicts=7
%%%mzn-stat: circuitNumber1GacPrunings=342
%%%mzn-stat: circuitNumber1PropagationsThatGacPruned=67
%%%mzn-stat: circuitNumber1TotalPruningHallSetSize=614
%%%mzn-stat: circuitNumber1NumberOfPruningExplanations=342
%%%mzn-stat: circuitNumber1MaxPruningHallSetSize=10
%%%mzn-stat: circuitNumber1TotalSccSizeAtPruning=247
%%%mzn-stat: circuitNumber1NumberOfSccPruningCalls=67
%%%mzn-stat: circuitNumber1TotalVarsInvolvedInPruning=301
%%%mzn-stat: circuitNumber1MaxValuesPrunedFromSingleVar=5
%%%mzn-stat: circuitNumber1HallCircuitChecks=127
%%%mzn-stat: circuitNumber1HallCircuitPrunings=9
%%%mzn-stat: circuitNumber1CircuitPreventPrunings=48
%%%mzn-stat: AverageConflictSize=8.2
%%%mzn-stat: NumUnitNogoodsLearned=0
%%%mzn-stat: AverageLearnedNogoodLength=12
%%%mzn-stat: AverageBacktrackAmount=0
%%%mzn-stat: AverageLbd=7.7
%%%mzn-stat: 2AutonomousSearchNumBackupCalled=505
%%%mzn-stat: 2AutonomousSearchNumPredicatesRemoved=0
%%%mzn-stat: 2AutonomousSearchNumCalls=508
%%%mzn-stat: 2AutonomousSearchNumPredicatesAdded=215
%%%mzn-stat: 2AutonomousSearchAverageSizeOfHeap=0.5826771653543307
%%%mzn-stat: 2AutonomousSearchNumAssignedPredicatesEncountered=296
%%%mzn-stat-end
maxleg = 520;
succ = array1d(1..20,[2, 4, 6, 5, 8, 1, 3, 10, 11, 14, 12, 13, 19, 20, 7, 17, 9, 15, 18, 16]);
% time elapsed: 5.09 s
----------
%%%mzn-stat: initTime=0.004563374
%%%mzn-stat: objective=488
%%%mzn-stat: nodes=721
%%%mzn-stat: restarts=0
%%%mzn-stat: peakDepth=192
%%%mzn-stat: solveTime=0.004631138
%%%mzn-stat: variables=396
%%%mzn-stat: propagators=270
%%%mzn-stat: failures=11
%%%mzn-stat: propagations=2434
%%%mzn-stat: nogoods=11
%%%mzn-stat: numAtomicConstraintsPropagated=0
%%%mzn-stat: circuitNumber1PropagationsTotal=165
%%%mzn-stat: circuitNumber1CircuitConflicts=7
%%%mzn-stat: circuitNumber1AlldiffConflicts=1
%%%mzn-stat: circuitNumber1TotalFixedEdgesAtConflict=114
%%%mzn-stat: circuitNumber1NumberOfConflicts=8
%%%mzn-stat: circuitNumber1GacPrunings=431
%%%mzn-stat: circuitNumber1PropagationsThatGacPruned=80
%%%mzn-stat: circuitNumber1TotalPruningHallSetSize=814
%%%mzn-stat: circuitNumber1NumberOfPruningExplanations=431
%%%mzn-stat: circuitNumber1MaxPruningHallSetSize=14
%%%mzn-stat: circuitNumber1TotalSccSizeAtPruning=336
%%%mzn-stat: circuitNumber1NumberOfSccPruningCalls=80
%%%mzn-stat: circuitNumber1TotalVarsInvolvedInPruning=374
%%%mzn-stat: circuitNumber1MaxValuesPrunedFromSingleVar=5
%%%mzn-stat: circuitNumber1HallCircuitChecks=151
%%%mzn-stat: circuitNumber1HallCircuitPrunings=11
%%%mzn-stat: circuitNumber1CircuitPreventPrunings=58
%%%mzn-stat: AverageConflictSize=7.636363636363637
%%%mzn-stat: NumUnitNogoodsLearned=0
%%%mzn-stat: AverageLearnedNogoodLength=13.727272727272727
%%%mzn-stat: AverageBacktrackAmount=0
%%%mzn-stat: AverageLbd=7.636363636363637
%%%mzn-stat: 2AutonomousSearchNumBackupCalled=656
%%%mzn-stat: 2AutonomousSearchNumPredicatesRemoved=0
%%%mzn-stat: 2AutonomousSearchNumCalls=660
%%%mzn-stat: 2AutonomousSearchNumPredicatesAdded=288
%%%mzn-stat: 2AutonomousSearchAverageSizeOfHeap=0.7287878787878788
%%%mzn-stat: 2AutonomousSearchNumAssignedPredicatesEncountered=481
%%%mzn-stat-end
maxleg = 488;
succ = array1d(1..20,[2, 4, 6, 5, 8, 7, 9, 10, 11, 14, 12, 13, 19, 20, 1, 17, 3, 15, 18, 16]);
% time elapsed: 5.09 s
----------
%%%mzn-stat: initTime=0.004563374
%%%mzn-stat: objective=487
%%%mzn-stat: nodes=883
%%%mzn-stat: restarts=0
%%%mzn-stat: peakDepth=192
%%%mzn-stat: solveTime=0.005426025
%%%mzn-stat: variables=396
%%%mzn-stat: propagators=270
%%%mzn-stat: failures=11
%%%mzn-stat: propagations=2884
%%%mzn-stat: nogoods=11
%%%mzn-stat: numAtomicConstraintsPropagated=0
%%%mzn-stat: circuitNumber1PropagationsTotal=194
%%%mzn-stat: circuitNumber1CircuitConflicts=7
%%%mzn-stat: circuitNumber1AlldiffConflicts=1
%%%mzn-stat: circuitNumber1TotalFixedEdgesAtConflict=114
%%%mzn-stat: circuitNumber1NumberOfConflicts=8
%%%mzn-stat: circuitNumber1GacPrunings=508
%%%mzn-stat: circuitNumber1PropagationsThatGacPruned=95
%%%mzn-stat: circuitNumber1TotalPruningHallSetSize=961
%%%mzn-stat: circuitNumber1NumberOfPruningExplanations=508
%%%mzn-stat: circuitNumber1MaxPruningHallSetSize=14
%%%mzn-stat: circuitNumber1TotalSccSizeAtPruning=394
%%%mzn-stat: circuitNumber1NumberOfSccPruningCalls=95
%%%mzn-stat: circuitNumber1TotalVarsInvolvedInPruning=440
%%%mzn-stat: circuitNumber1MaxValuesPrunedFromSingleVar=5
%%%mzn-stat: circuitNumber1HallCircuitChecks=180
%%%mzn-stat: circuitNumber1HallCircuitPrunings=15
%%%mzn-stat: circuitNumber1CircuitPreventPrunings=71
%%%mzn-stat: AverageConflictSize=7.636363636363637
%%%mzn-stat: NumUnitNogoodsLearned=0
%%%mzn-stat: AverageLearnedNogoodLength=13.727272727272727
%%%mzn-stat: AverageBacktrackAmount=0
%%%mzn-stat: AverageLbd=7.636363636363637
%%%mzn-stat: 2AutonomousSearchNumBackupCalled=807
%%%mzn-stat: 2AutonomousSearchNumPredicatesRemoved=0
%%%mzn-stat: 2AutonomousSearchNumCalls=812
%%%mzn-stat: 2AutonomousSearchNumPredicatesAdded=288
%%%mzn-stat: 2AutonomousSearchAverageSizeOfHeap=0.8201970443349754
%%%mzn-stat: 2AutonomousSearchNumAssignedPredicatesEncountered=666
%%%mzn-stat-end
maxleg = 487;
succ = array1d(1..20,[2, 4, 6, 5, 18, 15, 3, 10, 7, 11, 9, 13, 16, 8, 1, 17, 20, 19, 12, 14]);
% time elapsed: 5.09 s
----------
%%%mzn-stat: initTime=0.004563374
%%%mzn-stat: objective=477
%%%mzn-stat: nodes=1039
%%%mzn-stat: restarts=0
%%%mzn-stat: peakDepth=192
%%%mzn-stat: solveTime=0.006200292
%%%mzn-stat: variables=396
%%%mzn-stat: propagators=270
%%%mzn-stat: failures=11
%%%mzn-stat: propagations=3355
%%%mzn-stat: nogoods=11
%%%mzn-stat: numAtomicConstraintsPropagated=0
%%%mzn-stat: circuitNumber1PropagationsTotal=224
%%%mzn-stat: circuitNumber1CircuitConflicts=7
%%%mzn-stat: circuitNumber1AlldiffConflicts=1
%%%mzn-stat: circuitNumber1TotalFixedEdgesAtConflict=114
%%%mzn-stat: circuitNumber1NumberOfConflicts=8
%%%mzn-stat: circuitNumber1GacPrunings=583
%%%mzn-stat: circuitNumber1PropagationsThatGacPruned=110
%%%mzn-stat: circuitNumber1TotalPruningHallSetSize=1083
%%%mzn-stat: circuitNumber1NumberOfPruningExplanations=583
%%%mzn-stat: circuitNumber1MaxPruningHallSetSize=14
%%%mzn-stat: circuitNumber1TotalSccSizeAtPruning=446
%%%mzn-stat: circuitNumber1NumberOfSccPruningCalls=110
%%%mzn-stat: circuitNumber1TotalVarsInvolvedInPruning=506
%%%mzn-stat: circuitNumber1MaxValuesPrunedFromSingleVar=5
%%%mzn-stat: circuitNumber1HallCircuitChecks=210
%%%mzn-stat: circuitNumber1HallCircuitPrunings=19
%%%mzn-stat: circuitNumber1CircuitPreventPrunings=84
%%%mzn-stat: AverageConflictSize=7.636363636363637
%%%mzn-stat: NumUnitNogoodsLearned=0
%%%mzn-stat: AverageLearnedNogoodLength=13.727272727272727
%%%mzn-stat: AverageBacktrackAmount=0
%%%mzn-stat: AverageLbd=7.636363636363637
%%%mzn-stat: 2AutonomousSearchNumBackupCalled=951
%%%mzn-stat: 2AutonomousSearchNumPredicatesRemoved=0
%%%mzn-stat: 2AutonomousSearchNumCalls=957
%%%mzn-stat: 2AutonomousSearchNumPredicatesAdded=288
%%%mzn-stat: 2AutonomousSearchAverageSizeOfHeap=0.8892371995820272
%%%mzn-stat: 2AutonomousSearchNumAssignedPredicatesEncountered=851
%%%mzn-stat-end
maxleg = 477;
succ = array1d(1..20,[2, 4, 6, 5, 18, 15, 9, 10, 11, 14, 8, 3, 19, 20, 1, 13, 16, 7, 12, 17]);
% time elapsed: 5.09 s
----------
%%%mzn-stat: initTime=0.004563374
%%%mzn-stat: objective=469
%%%mzn-stat: nodes=1199
%%%mzn-stat: restarts=0
%%%mzn-stat: peakDepth=192
%%%mzn-stat: solveTime=0.007016002
%%%mzn-stat: variables=396
%%%mzn-stat: propagators=270
%%%mzn-stat: failures=11
%%%mzn-stat: propagations=3825
%%%mzn-stat: nogoods=11
%%%mzn-stat: numAtomicConstraintsPropagated=0
%%%mzn-stat: circuitNumber1PropagationsTotal=252
%%%mzn-stat: circuitNumber1CircuitConflicts=7
%%%mzn-stat: circuitNumber1AlldiffConflicts=1
%%%mzn-stat: circuitNumber1TotalFixedEdgesAtConflict=114
%%%mzn-stat: circuitNumber1NumberOfConflicts=8
%%%mzn-stat: circuitNumber1GacPrunings=655
%%%mzn-stat: circuitNumber1PropagationsThatGacPruned=124
%%%mzn-stat: circuitNumber1TotalPruningHallSetSize=1196
%%%mzn-stat: circuitNumber1NumberOfPruningExplanations=655
%%%mzn-stat: circuitNumber1MaxPruningHallSetSize=14
%%%mzn-stat: circuitNumber1TotalSccSizeAtPruning=493
%%%mzn-stat: circuitNumber1NumberOfSccPruningCalls=124
%%%mzn-stat: circuitNumber1TotalVarsInvolvedInPruning=570
%%%mzn-stat: circuitNumber1MaxValuesPrunedFromSingleVar=5
%%%mzn-stat: circuitNumber1HallCircuitChecks=239
%%%mzn-stat: circuitNumber1HallCircuitPrunings=23
%%%mzn-stat: circuitNumber1CircuitPreventPrunings=99
%%%mzn-stat: AverageConflictSize=7.636363636363637
%%%mzn-stat: NumUnitNogoodsLearned=0
%%%mzn-stat: AverageLearnedNogoodLength=13.727272727272727
%%%mzn-stat: AverageBacktrackAmount=0
%%%mzn-stat: AverageLbd=7.636363636363637
%%%mzn-stat: 2AutonomousSearchNumBackupCalled=1100
%%%mzn-stat: 2AutonomousSearchNumPredicatesRemoved=0
%%%mzn-stat: 2AutonomousSearchNumCalls=1107
%%%mzn-stat: 2AutonomousSearchNumPredicatesAdded=288
%%%mzn-stat: 2AutonomousSearchAverageSizeOfHeap=0.935862691960253
%%%mzn-stat: 2AutonomousSearchNumAssignedPredicatesEncountered=1036
%%%mzn-stat-end
maxleg = 469;
succ = array1d(1..20,[2, 4, 6, 5, 18, 15, 9, 10, 11, 14, 8, 3, 19, 20, 1, 17, 13, 7, 12, 16]);
% time elapsed: 5.09 s
----------
%%%mzn-stat: initTime=0.004563374
%%%mzn-stat: objective=455
%%%mzn-stat: nodes=1344
%%%mzn-stat: restarts=0
%%%mzn-stat: peakDepth=192
%%%mzn-stat: solveTime=0.007742689
%%%mzn-stat: variables=396
%%%mzn-stat: propagators=270
%%%mzn-stat: failures=11
%%%mzn-stat: propagations=4287
%%%mzn-stat: nogoods=11
%%%mzn-stat: numAtomicConstraintsPropagated=0
%%%mzn-stat: circuitNumber1PropagationsTotal=277
%%%mzn-stat: circuitNumber1CircuitConflicts=7
%%%mzn-stat: circuitNumber1AlldiffConflicts=1
%%%mzn-stat: circuitNumber1TotalFixedEdgesAtConflict=114
%%%mzn-stat: circuitNumber1NumberOfConflicts=8
%%%mzn-stat: circuitNumber1GacPrunings=726
%%%mzn-stat: circuitNumber1PropagationsThatGacPruned=136
%%%mzn-stat: circuitNumber1TotalPruningHallSetSize=1315
%%%mzn-stat: circuitNumber1NumberOfPruningExplanations=726
%%%mzn-stat: circuitNumber1MaxPruningHallSetSize=14
%%%mzn-stat: circuitNumber1TotalSccSizeAtPruning=544
%%%mzn-stat: circuitNumber1NumberOfSccPruningCalls=136
%%%mzn-stat: circuitNumber1TotalVarsInvolvedInPruning=632
%%%mzn-stat: circuitNumber1MaxValuesPrunedFromSingleVar=5
%%%mzn-stat: circuitNumber1HallCircuitChecks=264
%%%mzn-stat: circuitNumber1HallCircuitPrunings=27
%%%mzn-stat: circuitNumber1CircuitPreventPrunings=112
%%%mzn-stat: AverageConflictSize=7.636363636363637
%%%mzn-stat: NumUnitNogoodsLearned=0
%%%mzn-stat: AverageLearnedNogoodLength=13.727272727272727
%%%mzn-stat: AverageBacktrackAmount=0
%%%mzn-stat: AverageLbd=7.636363636363637
%%%mzn-stat: 2AutonomousSearchNumBackupCalled=1235
%%%mzn-stat: 2AutonomousSearchNumPredicatesRemoved=0
%%%mzn-stat: 2AutonomousSearchNumCalls=1243
%%%mzn-stat: 2AutonomousSearchNumPredicatesAdded=288
%%%mzn-stat: 2AutonomousSearchAverageSizeOfHeap=0.9823008849557522
%%%mzn-stat: 2AutonomousSearchNumAssignedPredicatesEncountered=1221
%%%mzn-stat-end
maxleg = 455;
succ = array1d(1..20,[2, 4, 6, 5, 18, 15, 9, 10, 12, 11, 3, 19, 17, 8, 1, 20, 16, 7, 13, 14]);
% time elapsed: 5.09 s
----------
%%%mzn-stat: initTime=0.004563374
%%%mzn-stat: objective=432
%%%mzn-stat: nodes=1470
%%%mzn-stat: restarts=0
%%%mzn-stat: peakDepth=192
%%%mzn-stat: solveTime=0.00860272
%%%mzn-stat: variables=396
%%%mzn-stat: propagators=270
%%%mzn-stat: failures=12
%%%mzn-stat: propagations=4788
%%%mzn-stat: nogoods=12
%%%mzn-stat: numAtomicConstraintsPropagated=0
%%%mzn-stat: circuitNumber1PropagationsTotal=307
%%%mzn-stat: circuitNumber1CircuitConflicts=7
%%%mzn-stat: circuitNumber1AlldiffConflicts=1
%%%mzn-stat: circuitNumber1TotalFixedEdgesAtConflict=114
%%%mzn-stat: circuitNumber1NumberOfConflicts=8
%%%mzn-stat: circuitNumber1GacPrunings=796
%%%mzn-stat: circuitNumber1PropagationsThatGacPruned=151
%%%mzn-stat: circuitNumber1TotalPruningHallSetSize=1469
%%%mzn-stat: circuitNumber1NumberOfPruningExplanations=796
%%%mzn-stat: circuitNumber1MaxPruningHallSetSize=14
%%%mzn-stat: circuitNumber1TotalSccSizeAtPruning=615
%%%mzn-stat: circuitNumber1NumberOfSccPruningCalls=151
%%%mzn-stat: circuitNumber1TotalVarsInvolvedInPruning=692
%%%mzn-stat: circuitNumber1MaxValuesPrunedFromSingleVar=5
%%%mzn-stat: circuitNumber1HallCircuitChecks=297
%%%mzn-stat: circuitNumber1HallCircuitPrunings=30
%%%mzn-stat: circuitNumber1CircuitPreventPrunings=128
%%%mzn-stat: AverageConflictSize=7.5
%%%mzn-stat: NumUnitNogoodsLearned=0
%%%mzn-stat: AverageLearnedNogoodLength=14.083333333333334
%%%mzn-stat: AverageBacktrackAmount=0
%%%mzn-stat: AverageLbd=7.416666666666667
%%%mzn-stat: 2AutonomousSearchNumBackupCalled=1350
%%%mzn-stat: 2AutonomousSearchNumPredicatesRemoved=0
%%%mzn-stat: 2AutonomousSearchNumCalls=1359
%%%mzn-stat: 2AutonomousSearchNumPredicatesAdded=356
%%%mzn-stat: 2AutonomousSearchAverageSizeOfHeap=1.0662251655629138
%%%mzn-stat: 2AutonomousSearchNumAssignedPredicatesEncountered=1449
%%%mzn-stat-end
maxleg = 432;
succ = array1d(1..20,[2, 4, 6, 7, 1, 15, 9, 10, 12, 11, 3, 19, 17, 8, 18, 20, 16, 5, 13, 14]);
% time elapsed: 5.09 s
----------
%%%mzn-stat: initTime=0.004563374
%%%mzn-stat: objective=423
%%%mzn-stat: nodes=1598
%%%mzn-stat: restarts=0
%%%mzn-stat: peakDepth=192
%%%mzn-stat: solveTime=0.009483693
%%%mzn-stat: variables=396
%%%mzn-stat: propagators=270
%%%mzn-stat: failures=13
%%%mzn-stat: propagations=5305
%%%mzn-stat: nogoods=13
%%%mzn-stat: numAtomicConstraintsPropagated=0
%%%mzn-stat: circuitNumber1PropagationsTotal=336
%%%mzn-stat: circuitNumber1CircuitConflicts=8
%%%mzn-stat: circuitNumber1AlldiffConflicts=1
%%%mzn-stat: circuitNumber1TotalFixedEdgesAtConflict=117
%%%mzn-stat: circuitNumber1NumberOfConflicts=9
%%%mzn-stat: circuitNumber1GacPrunings=868
%%%mzn-stat: circuitNumber1PropagationsThatGacPruned=164
%%%mzn-stat: circuitNumber1TotalPruningHallSetSize=1743
%%%mzn-stat: circuitNumber1NumberOfPruningExplanations=868
%%%mzn-stat: circuitNumber1MaxPruningHallSetSize=19
%%%mzn-stat: circuitNumber1TotalSccSizeAtPruning=718
%%%mzn-stat: circuitNumber1NumberOfSccPruningCalls=164
%%%mzn-stat: circuitNumber1TotalVarsInvolvedInPruning=750
%%%mzn-stat: circuitNumber1MaxValuesPrunedFromSingleVar=6
%%%mzn-stat: circuitNumber1HallCircuitChecks=328
%%%mzn-stat: circuitNumber1HallCircuitPrunings=36
%%%mzn-stat: circuitNumber1CircuitPreventPrunings=140
%%%mzn-stat: AverageConflictSize=7.153846153846154
%%%mzn-stat: NumUnitNogoodsLearned=0
%%%mzn-stat: AverageLearnedNogoodLength=14.846153846153847
%%%mzn-stat: AverageBacktrackAmount=0
%%%mzn-stat: AverageLbd=7
%%%mzn-stat: 2AutonomousSearchNumBackupCalled=1466
%%%mzn-stat: 2AutonomousSearchNumPredicatesRemoved=0
%%%mzn-stat: 2AutonomousSearchNumCalls=1476
%%%mzn-stat: 2AutonomousSearchNumPredicatesAdded=408
%%%mzn-stat: 2AutonomousSearchAverageSizeOfHeap=1.165311653116531
%%%mzn-stat: 2AutonomousSearchNumAssignedPredicatesEncountered=1720
%%%mzn-stat-end
maxleg = 423;
succ = array1d(1..20,[5, 4, 6, 7, 2, 15, 9, 10, 12, 11, 3, 19, 17, 8, 18, 20, 16, 1, 13, 14]);
% time elapsed: 5.09 s
----------
%%%mzn-stat: initTime=0.004563374
%%%mzn-stat: objective=406
%%%mzn-stat: nodes=1713
%%%mzn-stat: restarts=0
%%%mzn-stat: peakDepth=192
%%%mzn-stat: solveTime=0.010167874
%%%mzn-stat: variables=396
%%%mzn-stat: propagators=270
%%%mzn-stat: failures=13
%%%mzn-stat: propagations=5797
%%%mzn-stat: nogoods=13
%%%mzn-stat: numAtomicConstraintsPropagated=0
%%%mzn-stat: circuitNumber1PropagationsTotal=360
%%%mzn-stat: circuitNumber1CircuitConflicts=8
%%%mzn-stat: circuitNumber1AlldiffConflicts=1
%%%mzn-stat: circuitNumber1TotalFixedEdgesAtConflict=117
%%%mzn-stat: circuitNumber1NumberOfConflicts=9
%%%mzn-stat: circuitNumber1GacPrunings=924
%%%mzn-stat: circuitNumber1PropagationsThatGacPruned=177
%%%mzn-stat: circuitNumber1TotalPruningHallSetSize=1902
%%%mzn-stat: circuitNumber1NumberOfPruningExplanations=924
%%%mzn-stat: circuitNumber1MaxPruningHallSetSize=19
%%%mzn-stat: circuitNumber1TotalSccSizeAtPruning=764
%%%mzn-stat: circuitNumber1NumberOfSccPruningCalls=177
%%%mzn-stat: circuitNumber1TotalVarsInvolvedInPruning=796
%%%mzn-stat: circuitNumber1MaxValuesPrunedFromSingleVar=6
%%%mzn-stat: circuitNumber1HallCircuitChecks=355
%%%mzn-stat: circuitNumber1HallCircuitPrunings=42
%%%mzn-stat: circuitNumber1CircuitPreventPrunings=149
%%%mzn-stat: AverageConflictSize=7.153846153846154
%%%mzn-stat: NumUnitNogoodsLearned=0
%%%mzn-stat: AverageLearnedNogoodLength=14.846153846153847
%%%mzn-stat: AverageBacktrackAmount=0
%%%mzn-stat: AverageLbd=7
%%%mzn-stat: 2AutonomousSearchNumBackupCalled=1570
%%%mzn-stat: 2AutonomousSearchNumPredicatesRemoved=0
%%%mzn-stat: 2AutonomousSearchNumCalls=1581
%%%mzn-stat: 2AutonomousSearchNumPredicatesAdded=408
%%%mzn-stat: 2AutonomousSearchAverageSizeOfHeap=1.2593295382669196
%%%mzn-stat: 2AutonomousSearchNumAssignedPredicatesEncountered=1991
%%%mzn-stat-end
maxleg = 406;
succ = array1d(1..20,[5, 4, 6, 7, 2, 15, 9, 10, 12, 14, 3, 19, 8, 20, 18, 17, 11, 1, 13, 16]);
% time elapsed: 5.09 s
----------
%%%mzn-stat: initTime=0.004563374
%%%mzn-stat: objective=386
%%%mzn-stat: nodes=1826
%%%mzn-stat: restarts=0
%%%mzn-stat: peakDepth=192
%%%mzn-stat: solveTime=0.010888656
%%%mzn-stat: variables=396
%%%mzn-stat: propagators=270
%%%mzn-stat: failures=13
%%%mzn-stat: propagations=6301
%%%mzn-stat: nogoods=13
%%%mzn-stat: numAtomicConstraintsPropagated=0
%%%mzn-stat: circuitNumber1PropagationsTotal=388
%%%mzn-stat: circuitNumber1CircuitConflicts=8
%%%mzn-stat: circuitNumber1AlldiffConflicts=1
%%%mzn-stat: circuitNumber1TotalFixedEdgesAtConflict=117
%%%mzn-stat: circuitNumber1NumberOfConflicts=9
%%%mzn-stat: circuitNumber1GacPrunings=975
%%%mzn-stat: circuitNumber1PropagationsThatGacPruned=193
%%%mzn-stat: circuitNumber1TotalPruningHallSetSize=2055
%%%mzn-stat: circuitNumber1NumberOfPruningExplanations=975
%%%mzn-stat: circuitNumber1MaxPruningHallSetSize=19
%%%mzn-stat: circuitNumber1TotalSccSizeAtPruning=822
%%%mzn-stat: circuitNumber1NumberOfSccPruningCalls=193
%%%mzn-stat: circuitNumber1TotalVarsInvolvedInPruning=840
%%%mzn-stat: circuitNumber1MaxValuesPrunedFromSingleVar=6
%%%mzn-stat: circuitNumber1HallCircuitChecks=388
%%%mzn-stat: circuitNumber1HallCircuitPrunings=48
%%%mzn-stat: circuitNumber1CircuitPreventPrunings=159
%%%mzn-stat: AverageConflictSize=7.153846153846154
%%%mzn-stat: NumUnitNogoodsLearned=0
%%%mzn-stat: AverageLearnedNogoodLength=14.846153846153847
%%%mzn-stat: AverageBacktrackAmount=0
%%%mzn-stat: AverageLbd=7
%%%mzn-stat: 2AutonomousSearchNumBackupCalled=1672
%%%mzn-stat: 2AutonomousSearchNumPredicatesRemoved=0
%%%mzn-stat: 2AutonomousSearchNumCalls=1684
%%%mzn-stat: 2AutonomousSearchNumPredicatesAdded=408
%%%mzn-stat: 2AutonomousSearchAverageSizeOfHeap=1.343230403800475
%%%mzn-stat: 2AutonomousSearchNumAssignedPredicatesEncountered=2262
%%%mzn-stat-end
maxleg = 386;
succ = array1d(1..20,[5, 4, 6, 7, 2, 15, 9, 10, 12, 14, 8, 11, 19, 20, 18, 17, 13, 1, 3, 16]);
% time elapsed: 5.09 s
----------
%%%mzn-stat: initTime=0.004563374
%%%mzn-stat: objective=385
%%%mzn-stat: nodes=1929
%%%mzn-stat: restarts=0
%%%mzn-stat: peakDepth=192
%%%mzn-stat: solveTime=0.01169545
%%%mzn-stat: variables=396
%%%mzn-stat: propagators=270
%%%mzn-stat: failures=13
%%%mzn-stat: propagations=6793
%%%mzn-stat: nogoods=13
%%%mzn-stat: numAtomicConstraintsPropagated=0
%%%mzn-stat: circuitNumber1PropagationsTotal=415
%%%mzn-stat: circuitNumber1CircuitConflicts=8
%%%mzn-stat: circuitNumber1AlldiffConflicts=1
%%%mzn-stat: circuitNumber1TotalFixedEdgesAtConflict=117
%%%mzn-stat: circuitNumber1NumberOfConflicts=9
%%%mzn-stat: circuitNumber1GacPrunings=1024
%%%mzn-stat: circuitNumber1PropagationsThatGacPruned=209
%%%mzn-stat: circuitNumber1TotalPruningHallSetSize=2219
%%%mzn-stat: circuitNumber1NumberOfPruningExplanations=1024
%%%mzn-stat: circuitNumber1MaxPruningHallSetSize=19
%%%mzn-stat: circuitNumber1TotalSccSizeAtPruning=879
%%%mzn-stat: circuitNumber1NumberOfSccPruningCalls=209
%%%mzn-stat: circuitNumber1TotalVarsInvolvedInPruning=882
%%%mzn-stat: circuitNumber1MaxValuesPrunedFromSingleVar=6
%%%mzn-stat: circuitNumber1HallCircuitChecks=420
%%%mzn-stat: circuitNumber1HallCircuitPrunings=54
%%%mzn-stat: circuitNumber1CircuitPreventPrunings=169
%%%mzn-stat: AverageConflictSize=7.153846153846154
%%%mzn-stat: NumUnitNogoodsLearned=0
%%%mzn-stat: AverageLearnedNogoodLength=14.846153846153847
%%%mzn-stat: AverageBacktrackAmount=0
%%%mzn-stat: AverageLbd=7
%%%mzn-stat: 2AutonomousSearchNumBackupCalled=1766
%%%mzn-stat: 2AutonomousSearchNumPredicatesRemoved=0
%%%mzn-stat: 2AutonomousSearchNumCalls=1779
%%%mzn-stat: 2AutonomousSearchNumPredicatesAdded=408
%%%mzn-stat: 2AutonomousSearchAverageSizeOfHeap=1.4238336143901067
%%%mzn-stat: 2AutonomousSearchNumAssignedPredicatesEncountered=2533
%%%mzn-stat-end
maxleg = 385;
succ = array1d(1..20,[5, 4, 6, 7, 2, 15, 9, 10, 12, 14, 8, 19, 11, 20, 18, 17, 3, 1, 13, 16]);
% time elapsed: 5.09 s
----------
%%%mzn-stat: initTime=0.004563374
%%%mzn-stat: objective=377
%%%mzn-stat: nodes=2034
%%%mzn-stat: restarts=0
%%%mzn-stat: peakDepth=192
%%%mzn-stat: solveTime=0.012803258
%%%mzn-stat: variables=396
%%%mzn-stat: propagators=270
%%%mzn-stat: failures=15
%%%mzn-stat: propagations=7390
%%%mzn-stat: nogoods=15
%%%mzn-stat: numAtomicConstraintsPropagated=0
%%%mzn-stat: circuitNumber1PropagationsTotal=452
%%%mzn-stat: circuitNumber1CircuitConflicts=9
%%%mzn-stat: circuitNumber1AlldiffConflicts=1
%%%mzn-stat: circuitNumber1TotalFixedEdgesAtConflict=134
%%%mzn-stat: circuitNumber1NumberOfConflicts=10
%%%mzn-stat: circuitNumber1GacPrunings=1089
%%%mzn-stat: circuitNumber1PropagationsThatGacPruned=229
%%%mzn-stat: circuitNumber1TotalPruningHallSetSize=2452
%%%mzn-stat: circuitNumber1NumberOfPruningExplanations=1089
%%%mzn-stat: circuitNumber1MaxPruningHallSetSize=19
%%%mzn-stat: circuitNumber1TotalSccSizeAtPruning=990
%%%mzn-stat: circuitNumber1NumberOfSccPruningCalls=229
%%%mzn-stat: circuitNumber1TotalVarsInvolvedInPruning=933
%%%mzn-stat: circuitNumber1MaxValuesPrunedFromSingleVar=6
%%%mzn-stat: circuitNumber1HallCircuitChecks=462
%%%mzn-stat: circuitNumber1HallCircuitPrunings=60
%%%mzn-stat: circuitNumber1CircuitPreventPrunings=186
%%%mzn-stat: AverageConflictSize=6.733333333333333
%%%mzn-stat: NumUnitNogoodsLearned=0
%%%mzn-stat: AverageLearnedNogoodLength=16.533333333333335
%%%mzn-stat: AverageBacktrackAmount=0
%%%mzn-stat: AverageLbd=6.933333333333334
%%%mzn-stat: 2AutonomousSearchNumBackupCalled=1859
%%%mzn-stat: 2AutonomousSearchNumPredicatesRemoved=0
%%%mzn-stat: 2AutonomousSearchNumCalls=1873
%%%mzn-stat: 2AutonomousSearchNumPredicatesAdded=581
%%%mzn-stat: 2AutonomousSearchAverageSizeOfHeap=1.5638013881473571
%%%mzn-stat: 2AutonomousSearchNumAssignedPredicatesEncountered=2929
%%%mzn-stat-end
maxleg = 377;
succ = array1d(1..20,[5, 4, 6, 7, 2, 15, 9, 10, 17, 14, 8, 13, 19, 20, 18, 12, 11, 1, 3, 16]);
% time elapsed: 5.09 s
----------
%%%mzn-stat: initTime=0.004563374
%%%mzn-stat: objective=366
%%%mzn-stat: nodes=2129
%%%mzn-stat: restarts=0
%%%mzn-stat: peakDepth=192
%%%mzn-stat: solveTime=0.013787571
%%%mzn-stat: variables=396
%%%mzn-stat: propagators=270
%%%mzn-stat: failures=16
%%%mzn-stat: propagations=7952
%%%mzn-stat: nogoods=16
%%%mzn-stat: numAtomicConstraintsPropagated=0
%%%mzn-stat: circuitNumber1PropagationsTotal=483
%%%mzn-stat: circuitNumber1CircuitConflicts=9
%%%mzn-stat: circuitNumber1AlldiffConflicts=1
%%%mzn-stat: circuitNumber1TotalFixedEdgesAtConflict=134
%%%mzn-stat: circuitNumber1NumberOfConflicts=10
%%%mzn-stat: circuitNumber1GacPrunings=1144
%%%mzn-stat: circuitNumber1PropagationsThatGacPruned=248
%%%mzn-stat: circuitNumber1TotalPruningHallSetSize=2670
%%%mzn-stat: circuitNumber1NumberOfPruningExplanations=1144
%%%mzn-stat: circuitNumber1MaxPruningHallSetSize=19
%%%mzn-stat: circuitNumber1TotalSccSizeAtPruning=1078
%%%mzn-stat: circuitNumber1NumberOfSccPruningCalls=248
%%%mzn-stat: circuitNumber1TotalVarsInvolvedInPruning=977
%%%mzn-stat: circuitNumber1MaxValuesPrunedFromSingleVar=6
%%%mzn-stat: circuitNumber1HallCircuitChecks=499
%%%mzn-stat: circuitNumber1HallCircuitPrunings=66
%%%mzn-stat: circuitNumber1CircuitPreventPrunings=200
%%%mzn-stat: AverageConflictSize=7.3125
%%%mzn-stat: NumUnitNogoodsLearned=0
%%%mzn-stat: AverageLearnedNogoodLength=17.9375
%%%mzn-stat: AverageBacktrackAmount=0
%%%mzn-stat: AverageLbd=7.0625
%%%mzn-stat: 2AutonomousSearchNumBackupCalled=1943
%%%mzn-stat: 2AutonomousSearchNumPredicatesRemoved=0
%%%mzn-stat: 2AutonomousSearchNumCalls=1958
%%%mzn-stat: 2AutonomousSearchNumPredicatesAdded=712
%%%mzn-stat: 2AutonomousSearchAverageSizeOfHeap=1.7083758937691522
%%%mzn-stat: 2AutonomousSearchNumAssignedPredicatesEncountered=3345
%%%mzn-stat-end
maxleg = 366;
succ = array1d(1..20,[5, 4, 6, 7, 2, 15, 9, 10, 19, 14, 8, 3, 11, 20, 18, 17, 12, 1, 13, 16]);
% time elapsed: 5.09 s
----------
%%%mzn-stat: initTime=0.004563374
%%%mzn-stat: objective=329
%%%mzn-stat: nodes=2210
%%%mzn-stat: restarts=0
%%%mzn-stat: peakDepth=192
%%%mzn-stat: solveTime=0.014941563
%%%mzn-stat: variables=396
%%%mzn-stat: propagators=270
%%%mzn-stat: failures=18
%%%mzn-stat: propagations=8564
%%%mzn-stat: nogoods=18
%%%mzn-stat: numAtomicConstraintsPropagated=0
%%%mzn-stat: circuitNumber1PropagationsTotal=516
%%%mzn-stat: circuitNumber1CircuitConflicts=10
%%%mzn-stat: circuitNumber1AlldiffConflicts=1
%%%mzn-stat: circuitNumber1TotalFixedEdgesAtConflict=145
%%%mzn-stat: circuitNumber1NumberOfConflicts=11
%%%mzn-stat: circuitNumber1GacPrunings=1217
%%%mzn-stat: circuitNumber1PropagationsThatGacPruned=265
%%%mzn-stat: circuitNumber1TotalPruningHallSetSize=2947
%%%mzn-stat: circuitNumber1NumberOfPruningExplanations=1217
%%%mzn-stat: circuitNumber1MaxPruningHallSetSize=19
%%%mzn-stat: circuitNumber1TotalSccSizeAtPruning=1239
%%%mzn-stat: circuitNumber1NumberOfSccPruningCalls=265
%%%mzn-stat: circuitNumber1TotalVarsInvolvedInPruning=1034
%%%mzn-stat: circuitNumber1MaxValuesPrunedFromSingleVar=6
%%%mzn-stat: circuitNumber1HallCircuitChecks=534
%%%mzn-stat: circuitNumber1HallCircuitPrunings=73
%%%mzn-stat: circuitNumber1CircuitPreventPrunings=216
%%%mzn-stat: AverageConflictSize=8
%%%mzn-stat: NumUnitNogoodsLearned=0
%%%mzn-stat: AverageLearnedNogoodLength=19.666666666666668
%%%mzn-stat: AverageBacktrackAmount=0
%%%mzn-stat: AverageLbd=6.944444444444445
%%%mzn-stat: 2AutonomousSearchNumBackupCalled=2015
%%%mzn-stat: 2AutonomousSearchNumPredicatesRemoved=0
%%%mzn-stat: 2AutonomousSearchNumCalls=2031
%%%mzn-stat: 2AutonomousSearchNumPredicatesAdded=857
%%%mzn-stat: 2AutonomousSearchAverageSizeOfHeap=1.8719842442146726
%%%mzn-stat: 2AutonomousSearchNumAssignedPredicatesEncountered=3802
%%%mzn-stat-end
maxleg = 329;
succ = array1d(1..20,[5, 4, 6, 7, 2, 15, 12, 10, 19, 14, 8, 13, 11, 20, 18, 17, 9, 1, 3, 16]);
% time elapsed: 5.09 s
----------
%%%mzn-stat: initTime=0.004563374
%%%mzn-stat: objective=324
%%%mzn-stat: nodes=2294
%%%mzn-stat: restarts=0
%%%mzn-stat: peakDepth=192
%%%mzn-stat: solveTime=0.017846888
%%%mzn-stat: variables=396
%%%mzn-stat: propagators=270
%%%mzn-stat: failures=28
%%%mzn-stat: propagations=9793
%%%mzn-stat: nogoods=28
%%%mzn-stat: numAtomicConstraintsPropagated=0
%%%mzn-stat: circuitNumber1PropagationsTotal=598
%%%mzn-stat: circuitNumber1CircuitConflicts=13
%%%mzn-stat: circuitNumber1AlldiffConflicts=2
%%%mzn-stat: circuitNumber1TotalFixedEdgesAtConflict=206
%%%mzn-stat: circuitNumber1NumberOfConflicts=15
%%%mzn-stat: circuitNumber1GacPrunings=1379
%%%mzn-stat: circuitNumber1PropagationsThatGacPruned=311
%%%mzn-stat: circuitNumber1TotalPruningHallSetSize=3488
%%%mzn-stat: circuitNumber1NumberOfPruningExplanations=1379
%%%mzn-stat: circuitNumber1MaxPruningHallSetSize=19
%%%mzn-stat: circuitNumber1TotalSccSizeAtPruning=1559
%%%mzn-stat: circuitNumber1NumberOfSccPruningCalls=311
%%%mzn-stat: circuitNumber1TotalVarsInvolvedInPruning=1163
%%%mzn-stat: circuitNumber1MaxValuesPrunedFromSingleVar=6
%%%mzn-stat: circuitNumber1HallCircuitChecks=639
%%%mzn-stat: circuitNumber1HallCircuitPrunings=92
%%%mzn-stat: circuitNumber1CircuitPreventPrunings=253
%%%mzn-stat: AverageConflictSize=9.285714285714286
%%%mzn-stat: NumUnitNogoodsLearned=0
%%%mzn-stat: AverageLearnedNogoodLength=24.5
%%%mzn-stat: AverageBacktrackAmount=0
%%%mzn-stat: AverageLbd=6.321428571428571
%%%mzn-stat: 2AutonomousSearchNumBackupCalled=2079
%%%mzn-stat: 2AutonomousSearchNumPredicatesRemoved=0
%%%mzn-stat: 2AutonomousSearchNumCalls=2096
%%%mzn-stat: 2AutonomousSearchNumPredicatesAdded=1159
%%%mzn-stat: 2AutonomousSearchAverageSizeOfHeap=2.0625
%%%mzn-stat: 2AutonomousSearchNumAssignedPredicatesEncountered=4323
%%%mzn-stat-end
maxleg = 324;
succ = array1d(1..20,[5, 4, 6, 8, 2, 15, 9, 10, 19, 14, 7, 13, 11, 20, 18, 17, 12, 1, 3, 16]);
% time elapsed: 5.09 s
----------
%%%mzn-stat: initTime=0.004563374
%%%mzn-stat: objective=323
%%%mzn-stat: nodes=2365
%%%mzn-stat: restarts=0
%%%mzn-stat: peakDepth=192
%%%mzn-stat: solveTime=0.018481544
%%%mzn-stat: variables=396
%%%mzn-stat: propagators=270
%%%mzn-stat: failures=28
%%%mzn-stat: propagations=10285
%%%mzn-stat: nogoods=28
%%%mzn-stat: numAtomicConstraintsPropagated=0
%%%mzn-stat: circuitNumber1PropagationsTotal=616
%%%mzn-stat: circuitNumber1CircuitConflicts=13
%%%mzn-stat: circuitNumber1AlldiffConflicts=2
%%%mzn-stat: circuitNumber1TotalFixedEdgesAtConflict=206
%%%mzn-stat: circuitNumber1NumberOfConflicts=15
%%%mzn-stat: circuitNumber1GacPrunings=1419
%%%mzn-stat: circuitNumber1PropagationsThatGacPruned=320
%%%mzn-stat: circuitNumber1TotalPruningHallSetSize=3659
%%%mzn-stat: circuitNumber1NumberOfPruningExplanations=1419
%%%mzn-stat: circuitNumber1MaxPruningHallSetSize=19
%%%mzn-stat: circuitNumber1TotalSccSizeAtPruning=1651
%%%mzn-stat: circuitNumber1NumberOfSccPruningCalls=320
%%%mzn-stat: circuitNumber1TotalVarsInvolvedInPruning=1193
%%%mzn-stat: circuitNumber1MaxValuesPrunedFromSingleVar=6
%%%mzn-stat: circuitNumber1HallCircuitChecks=661
%%%mzn-stat: circuitNumber1HallCircuitPrunings=94
%%%mzn-stat: circuitNumber1CircuitPreventPrunings=259
%%%mzn-stat: AverageConflictSize=9.285714285714286
%%%mzn-stat: NumUnitNogoodsLearned=0
%%%mzn-stat: AverageLearnedNogoodLength=24.5
%%%mzn-stat: AverageBacktrackAmount=0
%%%mzn-stat: AverageLbd=6.321428571428571
%%%mzn-stat: 2AutonomousSearchNumBackupCalled=2144
%%%mzn-stat: 2AutonomousSearchNumPredicatesRemoved=0
%%%mzn-stat: 2AutonomousSearchNumCalls=2162
%%%mzn-stat: 2AutonomousSearchNumPredicatesAdded=1159
%%%mzn-stat: 2AutonomousSearchAverageSizeOfHeap=2.240518038852914
%%%mzn-stat: 2AutonomousSearchNumAssignedPredicatesEncountered=4844
%%%mzn-stat-end
maxleg = 323;
succ = array1d(1..20,[5, 4, 6, 8, 2, 18, 9, 10, 19, 14, 7, 13, 11, 20, 1, 17, 12, 15, 3, 16]);
% time elapsed: 5.09 s
----------
==========
% time elapsed: 5.09 s
%%%mzn-stat: initTime=0.004563374
%%%mzn-stat: objective=323
%%%mzn-stat: nodes=2613
%%%mzn-stat: restarts=0
%%%mzn-stat: peakDepth=192
%%%mzn-stat: solveTime=0.065757539
%%%mzn-stat: variables=396
%%%mzn-stat: propagators=270
%%%mzn-stat: failures=275
%%%mzn-stat: propagations=22909
%%%mzn-stat: nogoods=275
%%%mzn-stat: numAtomicConstraintsPropagated=0
%%%mzn-stat: circuitNumber1PropagationsTotal=1825
%%%mzn-stat: circuitNumber1CircuitConflicts=155
%%%mzn-stat: circuitNumber1AlldiffConflicts=10
%%%mzn-stat: circuitNumber1TotalFixedEdgesAtConflict=2403
%%%mzn-stat: circuitNumber1NumberOfConflicts=165
%%%mzn-stat: circuitNumber1GacPrunings=3801
%%%mzn-stat: circuitNumber1PropagationsThatGacPruned=1004
%%%mzn-stat: circuitNumber1TotalPruningHallSetSize=11421
%%%mzn-stat: circuitNumber1NumberOfPruningExplanations=3801
%%%mzn-stat: circuitNumber1MaxPruningHallSetSize=19
%%%mzn-stat: circuitNumber1TotalSccSizeAtPruning=6413
%%%mzn-stat: circuitNumber1NumberOfSccPruningCalls=1004
%%%mzn-stat: circuitNumber1TotalVarsInvolvedInPruning=3091
%%%mzn-stat: circuitNumber1MaxValuesPrunedFromSingleVar=6
%%%mzn-stat: circuitNumber1HallCircuitChecks=1997
%%%mzn-stat: circuitNumber1HallCircuitPrunings=299
%%%mzn-stat: circuitNumber1CircuitPreventPrunings=944
%%%mzn-stat: AverageConflictSize=7.756363636363637
%%%mzn-stat: NumUnitNogoodsLearned=1
%%%mzn-stat: AverageLearnedNogoodLength=31.632727272727273
%%%mzn-stat: AverageBacktrackAmount=0
%%%mzn-stat: AverageLbd=4.345454545454546
%%%mzn-stat: 2AutonomousSearchNumBackupCalled=2144
%%%mzn-stat: 2AutonomousSearchNumPredicatesRemoved=0
%%%mzn-stat: 2AutonomousSearchNumCalls=2162
%%%mzn-stat: 2AutonomousSearchNumPredicatesAdded=2049
%%%mzn-stat: 2AutonomousSearchAverageSizeOfHeap=2.240518038852914
%%%mzn-stat: 2AutonomousSearchNumAssignedPredicatesEncountered=4844
%%%mzn-stat-end
